clingo version 5.2.2
Reading from ...ult_interesting_subgraphs_coverage.txt
*** Info : (clingo): INTERRUPTED by signal!
UNKNOWN

TIME LIMIT   : 1
Models       : 0+
Calls        : 1
Time         : 3600.000s (Solving: 0.00s 1st Model: 0.00s Unsat: 0.00s)
CPU Time     : 3600.004s
Threads      : 7        (Winner: 0)
